c FILE: anna.col
c Translated from Stanford GraphBase File: anna.gb
c Stanford GraphBase ID: book(?anna?,138,0,1,239,0,0,0)
p edge 12 12
e 1 4
e 1 6
e 1 8
e 1 10
e 1 12
e 2 3
e 2 5
e 2 7
e 2 9
e 2 11
e 3 6
e 3 8
e 3 10
e 3 12
e 4 5
e 4 7
e 4 9
e 4 11
e 5 8
e 5 10
e 5 12
e 6 7
e 6 9
e 6 11
e 7 10
e 7 12
e 8 9
e 8 11
e 9 12
e 10 11